
******************************************************************************
This program contains Ipopt, a library for large-scale nonlinear optimization.
 Ipopt is released as open source code under the Eclipse Public License (EPL).
         For more information visit http://projects.coin-or.org/Ipopt

This version of Ipopt was compiled from source code available at
    https://github.com/IDAES/Ipopt as part of the Institute for the Design of
    Advanced Energy Systems Process Systems Engineering Framework (IDAES PSE
    Framework) Copyright (c) 2018-2019. See https://github.com/IDAES/idaes-pse.

This version of Ipopt was compiled using HSL, a collection of Fortran codes
    for large-scale scientific computation.  All technical papers, sales and
    publicity material resulting from use of the HSL codes within IPOPT must
    contain the following acknowledgement:
        HSL, a collection of Fortran codes for large-scale scientific
        computation. See http://www.hsl.rl.ac.uk.
******************************************************************************

This is Ipopt version 3.13.2, running with linear solver ma27.

Number of nonzeros in equality constraint Jacobian...:      914
Number of nonzeros in inequality constraint Jacobian.:        0
Number of nonzeros in Lagrangian Hessian.............:      918

Total number of variables............................:      378
                     variables with only lower bounds:      108
                variables with lower and upper bounds:      216
                     variables with only upper bounds:        0
Total number of equality constraints.................:      376
Total number of inequality constraints...............:        0
        inequality constraints with only lower bounds:        0
   inequality constraints with lower and upper bounds:        0
        inequality constraints with only upper bounds:        0

iter    objective    inf_pr   inf_du lg(mu)  ||d||  lg(rg) alpha_du alpha_pr  ls
   0  0.0000000e+00 2.29e-01 2.07e-14  -1.0 0.00e+00    -  0.00e+00 0.00e+00   0
   1  7.3220158e-02 1.08e-01 6.90e+03  -1.0 8.00e+04    -  7.53e-01 3.02e-01h  2
   2  8.1876939e-01 2.61e-02 4.82e+03  -1.0 5.95e+04    -  9.27e-01 9.90e-01h  1
   3  8.4994542e-01 9.29e-04 1.86e+02  -1.0 3.66e+03    -  9.86e-01 9.90e-01h  1
   4  8.4688971e-01 7.58e-06 7.48e-01  -1.0 6.15e+02    -  9.90e-01 9.90e-01h  1
   5  8.3170122e-01 3.07e-07 1.36e+02  -1.0 3.21e+03    -  9.90e-01 9.90e-01H  1
   6  8.1559205e-01 6.20e-04 1.05e+06  -3.8 9.93e+03    -  9.85e-01 5.00e-01f  2
   7  8.0667405e-01 5.89e-04 5.88e+02  -3.8 8.01e+03    -  1.00e+00 1.00e+00H  1
   8  8.0660289e-01 4.55e-05 4.31e+06  -3.8 8.47e+02    -  1.00e+00 1.00e+00h  1
In iteration 8, 27 Slacks too small, adjusting variable bounds
   9  8.0660445e-01 1.47e-08 2.87e+10  -3.8 3.78e+01    -  1.00e+00 1.00e+00h  1
iter    objective    inf_pr   inf_du lg(mu)  ||d||  lg(rg) alpha_du alpha_pr  ls
  10  8.0660445e-01 1.92e-13 7.53e-03  -3.8 4.34e-02    -  1.00e+00 1.00e+00h  1
  11  8.0660434e-01 4.90e-11 1.20e+06  -9.0 3.26e+01    -  1.00e+00 1.00e+00H  1
  12  8.0660434e-01 1.70e-13 2.04e-10  -9.0 4.05e-02    -  1.00e+00 1.00e+00h  1

Number of Iterations....: 12

                                   (scaled)                 (unscaled)
Objective...............:   8.0660434100724732e-01    8.0660434100724732e-01
Dual infeasibility......:   2.0372681319713593e-10    2.0372681319713593e-10
Constraint violation....:   1.7008616737257398e-13    1.7008616737257398e-13
Complementarity.........:   9.0939488601667926e-10    9.0939488601667926e-10
Overall NLP error.......:   1.0496035074487142e-11    9.0939488601667926e-10


Number of objective function evaluations             = 23
Number of objective gradient evaluations             = 13
Number of equality constraint evaluations            = 23
Number of inequality constraint evaluations          = 0
Number of equality constraint Jacobian evaluations   = 13
Number of inequality constraint Jacobian evaluations = 0
Number of Lagrangian Hessian evaluations             = 12
Total CPU secs in IPOPT (w/o function evaluations)   =      0.034
Total CPU secs in NLP function evaluations           =      0.291

EXIT: Optimal Solution Found.
